Route #1: 28 39 44 53 3 
Route #2: 30 25 41 13 38 9 1 23 
Route #3: 18 5 50 49 36 45 17 14 42 
Route #4: 4 16 6 11 27 32 
Route #5: 35 26 21 33 19 8 37 46 34 
Route #6: 2 12 48 40 31 22 10 
Route #7: 43 20 7 29 15 24 51 47 52 
cost 1606.78
